outputs/case_394.model.txt
liability_insurance_subscribed = True
guarantee_insurance_subscribed = True
fee_charged = False
bank_permit_obtained = False
minimum_amount_and_implementation_defined = True
fee_disclosure_made = False
qualification_and_management_rules_defined = True
bank_operate_as_broker = False
agent_type = 2
bank_operate_as_agent = False
insurance_subscribed = True
license_permitted = True
qualification_and_management_rules = True
duty_of_care_observed = True
insurance_agent_or_broker_permit = False
minimum_amount_and_implementation = True
duty_of_care_and_fidelity = True
insurance_type_requirement = True
penalty = False
written_report_provided = True
written_report_and_fee_disclosure = True
deposit_guarantee_fund = True
license_issued = True
duty_of_fidelity_observed = True
license_and_insurance_compliance = True